WARNING: for repeatability, setting FPU to use double precision
============================[ Problem Statistics ]=============================
|                                                                             |
|  Number of variables:           100                                         |
|  Number of clauses:             449                                         |
|  Parse time:                   0.00 s                                       |
|  Simplification time:          0.00 s                                       |
|                                                                             |
============================[ Search Statistics ]==============================
| Conflicts |          ORIGINAL         |          LEARNT          | Progress |
|           |    Vars  Clauses Literals |    Limit  Clauses Lit/Cl |          |
===============================================================================
|       100 |     100      448     1343 |      164      100      8 |  0.010 % |
===============================================================================
restarts              : 2
conflicts             : 140            (60711 /sec)
decisions             : 178            (0.00 % random) (77190 /sec)
propagations          : 3144           (1363400 /sec)
conflict literals     : 1093           (11.21 % deleted)
Memory used           : 13.00 MB
CPU time              : 0.002306 s

SATISFIABLE
